p = 50;
s = 25;
b = 12;
c = 10;
t = 5;
g = 12;
graph = [| 0,0,0,0,1,1,0,0,1,0,0,0,1,1,0,0,0,0,0,0,1,0,0,1,0
	| 1,0,0,1,0,1,1,0,0,0,1,1,0,0,1,1,0,1,1,1,1,1,1,1,0
	| 0,0,0,0,0,0,0,1,1,0,0,0,0,0,1,0,0,1,1,0,0,0,0,1,1
	| 1,1,0,1,1,0,1,1,1,1,0,0,0,0,0,0,1,0,0,1,0,0,0,1,1
	| 1,0,1,0,0,1,0,0,0,0,0,1,0,1,1,0,0,1,1,0,0,1,0,1,0
	| 0,0,1,1,1,1,0,0,1,0,1,1,1,0,1,0,1,0,0,1,0,0,1,0,1
	| 1,0,1,1,1,1,1,0,1,1,1,0,0,1,1,1,1,1,1,0,1,1,0,1,1
	| 0,0,1,1,0,0,0,0,1,0,0,0,1,0,1,0,0,1,1,0,1,1,1,1,1
	| 0,0,0,1,0,1,0,1,0,1,1,1,1,1,0,1,0,1,0,0,0,1,0,1,0
	| 1,1,1,0,1,1,1,0,0,1,0,1,0,0,1,1,0,1,0,0,0,1,1,1,1
	| 1,1,1,1,1,0,0,0,0,0,0,1,0,1,1,1,0,1,1,1,1,0,0,0,0
	| 1,0,1,0,1,0,0,1,1,0,0,0,1,1,0,1,1,1,1,1,0,1,0,0,1
	| 1,0,0,0,1,0,0,1,1,0,0,0,1,1,1,1,0,1,1,1,0,0,0,0,1
	| 1,1,1,0,1,1,1,0,1,0,1,1,0,0,0,1,1,1,0,1,0,0,1,0,1
	| 0,1,0,0,1,0,0,0,1,0,0,0,0,1,1,1,0,0,0,0,0,0,0,0,1
	| 0,0,0,0,0,1,0,0,0,0,0,0,0,0,1,0,1,0,0,1,1,1,1,1,0
	| 1,1,0,1,1,1,0,0,1,1,0,0,1,0,1,1,1,0,1,1,1,1,0,0,1
	| 1,1,0,0,0,1,1,1,0,1,0,0,1,1,1,0,0,1,0,0,1,1,1,0,0
	| 1,1,0,0,1,1,1,0,1,1,1,0,1,1,1,1,1,0,0,0,0,0,0,1,1
	| 0,0,0,0,0,1,0,0,1,1,0,0,0,0,0,1,0,0,0,1,0,0,1,0,1
	| 0,0,0,0,0,0,0,0,1,1,0,0,0,0,1,0,1,1,0,1,1,0,1,0,0
	| 0,0,0,1,1,1,1,1,0,1,1,1,1,0,1,0,1,1,1,1,1,1,0,0,1
	| 0,1,0,1,0,1,1,1,1,1,0,1,1,0,0,1,1,1,1,0,0,1,1,1,0
	| 0,1,0,0,0,1,0,0,0,0,0,0,1,1,1,1,0,1,0,1,1,1,0,1,0
	| 0,1,1,1,1,0,0,1,1,1,1,0,1,1,1,0,0,0,0,0,1,0,1,0,1
	| 1,0,0,1,1,0,1,1,0,0,0,0,0,0,1,0,1,0,1,0,0,0,1,0,0
	| 0,1,1,0,1,0,1,1,1,1,1,1,1,1,0,0,1,0,0,0,0,1,1,0,1
	| 0,1,1,1,0,1,1,0,0,1,1,0,0,0,1,1,0,0,0,0,0,0,0,0,0
	| 0,1,1,0,0,1,1,1,1,1,1,0,0,0,1,0,1,1,0,1,0,1,1,0,1
	| 1,1,1,1,1,1,0,0,1,1,1,1,1,0,1,0,1,0,0,0,1,0,0,1,0
	| 0,1,0,1,1,1,0,0,0,1,0,1,0,0,0,0,0,1,1,0,1,0,1,1,1
	| 0,0,0,0,0,1,1,1,0,1,1,1,1,0,0,0,0,0,0,1,0,1,1,0,0
	| 1,1,1,0,1,0,1,1,0,0,0,1,1,0,0,1,1,0,0,0,1,0,1,1,0
	| 0,0,1,1,1,1,0,1,1,0,0,1,0,0,1,1,0,1,1,1,0,0,0,0,0
	| 1,0,0,1,0,0,0,0,0,0,0,0,0,1,1,1,0,0,0,1,1,0,1,0,0
	| 1,1,1,0,1,1,1,1,0,0,0,0,1,0,0,1,0,0,1,1,1,1,1,0,1
	| 0,1,1,1,1,0,1,0,1,1,1,1,0,1,1,1,0,1,0,0,1,0,1,0,1
	| 1,0,1,1,0,0,1,0,0,0,1,0,0,1,1,1,0,0,0,1,0,1,0,1,1
	| 1,1,0,1,0,1,1,1,0,0,0,0,0,0,0,0,0,0,0,0,1,0,0,1,0
	| 1,1,1,0,1,0,0,0,0,1,1,1,1,0,0,0,0,0,0,1,1,0,0,0,0
	| 0,1,1,0,0,0,1,1,0,0,1,1,1,1,1,1,1,1,1,0,0,1,0,0,1
	| 0,0,0,1,1,1,1,1,1,1,1,1,0,0,1,1,1,0,1,0,0,0,1,0,1
	| 0,1,0,1,1,1,0,1,1,0,1,1,0,0,1,1,1,1,0,1,1,1,1,0,0
	| 1,1,0,1,1,0,1,0,0,1,0,1,0,0,0,1,1,0,1,0,0,1,0,0,1
	| 0,0,1,0,0,0,1,1,0,1,1,0,0,0,0,0,1,1,0,1,0,1,1,0,1
	| 1,1,0,0,1,1,1,1,1,0,0,0,1,1,1,1,1,0,0,0,1,0,1,0,0
	| 1,0,1,0,0,1,0,0,1,0,1,0,1,0,1,0,0,0,1,1,1,1,0,1,0
	| 0,1,0,1,0,1,1,1,1,0,1,1,0,1,1,0,0,1,0,0,1,0,0,0,0
	| 1,0,0,0,1,1,0,1,0,1,0,0,1,0,1,0,0,1,1,1,0,1,0,0,0
	| 0,0,0,1,1,1,1,0,0,1,0,0,1,0,1,1,1,0,1,1,1,1,1,0,0
	|];
groups = [
	{13,12,34},{2,15,29,1,10,46},{21,24,38,37,33,19},{6,23,16},{39,49,40,47,28,35},{11,17},{31,5,41,36,48,8},{18,43,42,27},{9,3,45,14,20,22},{26,32,50,7},{44,30,25,4},{}
]
